c description: Random 3-CNF over 23 variables and 98 clauses
c generator: CNFgen (0.9.2)
c copyright: (C) 2012-2022 Massimo Lauria <massimo.lauria@uniroma1.it>
c url: https://massimolauria.net/cnfgen
c command line: cnfgen --output CNF_4.28/23_bit_98_475.cnf randkcnf 3 23 98
c
p cnf 23 98
-6 -18 -19 0
-11 14 -17 0
12 21 23 0
-7 -14 19 0
12 -15 -23 0
2 -7 21 0
4 9 13 0
2 8 16 0
4 -9 23 0
1 -15 -19 0
3 15 22 0
2 -11 14 0
1 10 20 0
1 -9 13 0
3 7 -18 0
9 11 -14 0
5 -9 -17 0
-4 8 16 0
-8 22 -23 0
10 13 -20 0
4 -13 17 0
1 -4 5 0
5 20 -21 0
-14 18 -23 0
-11 -16 17 0
-8 10 20 0
2 -3 -16 0
-4 8 -10 0
19 -20 -21 0
2 11 -19 0
-1 6 -10 0
6 -7 -8 0
-6 -16 -20 0
-2 -14 -19 0
4 -9 -11 0
2 5 6 0
-5 -8 -18 0
7 -9 -19 0
-2 -10 11 0
1 -10 20 0
-9 18 -22 0
-7 -8 20 0
1 16 23 0
4 12 14 0
8 -21 -23 0
13 -16 -20 0
1 -6 9 0
-13 -15 23 0
9 -15 23 0
6 -20 -21 0
2 4 10 0
-7 -16 19 0
10 18 23 0
1 15 16 0
-5 -11 22 0
8 9 23 0
12 17 19 0
1 8 -14 0
-2 4 -9 0
8 -17 -18 0
2 9 23 0
6 12 -16 0
-1 -8 -14 0
-12 -17 20 0
4 -11 23 0
-11 -12 16 0
2 -16 18 0
-5 16 -23 0
7 16 -17 0
-8 -16 -17 0
18 -19 20 0
2 -15 19 0
7 -11 -12 0
10 13 -14 0
3 -6 -12 0
10 -14 22 0
6 10 -22 0
5 7 15 0
13 -14 -19 0
-4 18 -19 0
-6 -10 -22 0
1 -13 -21 0
7 13 -15 0
1 4 -9 0
-2 15 -19 0
4 -16 18 0
-1 2 -17 0
-14 -17 -18 0
-13 18 20 0
-6 8 9 0
-7 19 -23 0
8 -10 -16 0
14 -18 23 0
-1 -16 -18 0
-5 -8 -12 0
4 -11 -14 0
7 -9 16 0
1 12 -16 0
